
Gurobi 9.5.2 (mac64[arm]) logging started Mon May  1 21:43:29 2023

Set parameter LogFile to value "Java/output/special_iterative/scenario_seed_1_nJob_40_machineCount_2/mip_increment_2/log.txt"
Gurobi Optimizer version 9.5.2 build v9.5.2rc0 (mac64[arm])
Thread count: 8 physical cores, 8 logical processors, using up to 8 threads
Optimize a model with 1063 rows, 6640 columns and 44417 nonzeros
Model fingerprint: 0x4d8b96a5
Variable types: 0 continuous, 6640 integer (6640 binary)
Coefficient statistics:
  Matrix range     [1e+00, 2e+02]
  Objective range  [6e+01, 3e+06]
  Bounds range     [1e+00, 1e+00]
  RHS range        [1e+00, 1e+00]
Found heuristic solution: objective 6041904.0000
Presolve removed 79 rows and 850 columns
Presolve time: 0.06s
Presolved: 984 rows, 5790 columns, 38094 nonzeros
Variable types: 0 continuous, 5790 integer (5786 binary)

Root relaxation: objective 6.904409e+03, 863 iterations, 0.02 seconds (0.04 work units)

    Nodes    |    Current Node    |     Objective Bounds      |     Work
 Expl Unexpl |  Obj  Depth IntInf | Incumbent    BestBd   Gap | It/Node Time

     0     0 6904.40854    0   74 6041904.00 6904.40854   100%     -    0s
H    0     0                    836672.00000 6904.40854  99.2%     -    0s
H    0     0                    573280.00000 6904.40854  98.8%     -    0s
H    0     0                    8688.0000000 6941.61962  20.1%     -    0s
H    0     0                    8240.0000000 6941.61962  15.8%     -    0s
     0     0 6941.61962    0  140 8240.00000 6941.61962  15.8%     -    0s
H    0     0                    7904.0000000 6941.61962  12.2%     -    0s
H    0     0                    7744.0000000 6941.61962  10.4%     -    0s
     0     0 6955.40997    0  120 7744.00000 6955.40997  10.2%     -    0s
     0     0 6955.40997    0   74 7744.00000 6955.40997  10.2%     -    0s
H    0     0                    7680.0000000 6955.40997  9.43%     -    0s
H    0     0                    7104.0000000 6955.40997  2.09%     -    0s
     0     0 6955.40997    0  113 7104.00000 6955.40997  2.09%     -    0s
     0     0 6955.40997    0   60 7104.00000 6955.40997  2.09%     -    0s
H    0     0                    7072.0000000 6955.40997  1.65%     -    0s
     0     0 6955.40997    0  139 7072.00000 6955.40997  1.65%     -    0s
     0     0 6958.12651    0  133 7072.00000 6958.12651  1.61%     -    0s
     0     0 6958.41575    0  143 7072.00000 6958.41575  1.61%     -    0s
     0     0 6958.41575    0  144 7072.00000 6958.41575  1.61%     -    0s
     0     0 6968.31658    0  157 7072.00000 6968.31658  1.47%     -    0s
     0     0 6968.89435    0  156 7072.00000 6968.89435  1.46%     -    0s
     0     0 6968.93614    0  162 7072.00000 6968.93614  1.46%     -    0s
     0     0 6968.93614    0  161 7072.00000 6968.93614  1.46%     -    0s
     0     0 6982.85456    0  177 7072.00000 6982.85456  1.26%     -    0s
     0     0 6986.56015    0  197 7072.00000 6986.56015  1.21%     -    0s
     0     0 6988.88490    0  188 7072.00000 6988.88490  1.18%     -    0s
     0     0 6989.26229    0  181 7072.00000 6989.26229  1.17%     -    0s
     0     0 6989.28074    0  182 7072.00000 6989.28074  1.17%     -    0s
     0     0 6995.80569    0  187 7072.00000 6995.80569  1.08%     -    0s
     0     0 7000.94698    0  184 7072.00000 7000.94698  1.00%     -    0s
     0     0 7002.86685    0  193 7072.00000 7002.86685  0.98%     -    0s
     0     0 7003.68253    0  190 7072.00000 7003.68253  0.97%     -    0s
     0     0 7003.88563    0  194 7072.00000 7003.88563  0.96%     -    0s
     0     0 7003.88563    0  198 7072.00000 7003.88563  0.96%     -    0s
     0     0 7004.64204    0  188 7072.00000 7004.64204  0.95%     -    0s
     0     0 7004.64204    0   61 7072.00000 7004.64204  0.95%     -    0s
     0     0 7004.64204    0  140 7072.00000 7004.64204  0.95%     -    0s
     0     0 7004.64204    0  154 7072.00000 7004.64204  0.95%     -    0s
     0     0 7004.64204    0  187 7072.00000 7004.64204  0.95%     -    0s
     0     0 7004.64204    0  185 7072.00000 7004.64204  0.95%     -    0s
     0     0 7005.53043    0  163 7072.00000 7005.53043  0.94%     -    0s
     0     0 7005.57522    0  162 7072.00000 7005.57522  0.94%     -    0s
     0     0 7005.61096    0  167 7072.00000 7005.61096  0.94%     -    0s
     0     0 7008.00000    0    4 7072.00000 7008.00000  0.90%     -    0s
H    0     0                    7008.0000000 7008.00000  0.00%     -    0s
     0     0 7008.00000    0    4 7008.00000 7008.00000  0.00%     -    0s

Cutting planes:
  Cover: 2
  Clique: 30
  MIR: 27
  StrongCG: 1
  GUB cover: 36
  Zero half: 10
  Mod-K: 1
  RLT: 4
  Relax-and-lift: 1

Explored 1 nodes (8997 simplex iterations) in 0.91 seconds (1.13 work units)
Thread count was 8 (of 8 available processors)

Solution count 10: 7008 7072 7104 ... 836672

Optimal solution found (tolerance 1.00e-04)
Best objective 7.008000000000e+03, best bound 7.008000000000e+03, gap 0.0000%

Gurobi 9.5.2 (mac64[arm]) logging started Mon May  1 21:43:30 2023

Set parameter LogFile to value "Java/output/special_iterative/scenario_seed_1_nJob_40_machineCount_2/mip_increment_2/log.txt"
Gurobi Optimizer version 9.5.2 build v9.5.2rc0 (mac64[arm])
Thread count: 8 physical cores, 8 logical processors, using up to 8 threads
Optimize a model with 1063 rows, 5112 columns and 37013 nonzeros
Model fingerprint: 0x6df1097a
Variable types: 0 continuous, 5112 integer (5112 binary)
Coefficient statistics:
  Matrix range     [1e+00, 2e+02]
  Objective range  [1e+02, 6e+05]
  Bounds range     [1e+00, 1e+00]
  RHS range        [1e+00, 1e+00]
Presolve removed 301 rows and 633 columns
Presolve time: 0.04s
Presolved: 762 rows, 4479 columns, 31962 nonzeros
Variable types: 0 continuous, 4479 integer (4477 binary)

Root relaxation: objective 6.939530e+03, 902 iterations, 0.03 seconds (0.05 work units)

    Nodes    |    Current Node    |     Objective Bounds      |     Work
 Expl Unexpl |  Obj  Depth IntInf | Incumbent    BestBd   Gap | It/Node Time

     0     0 6939.52993    0  103          - 6939.52993      -     -    0s
H    0     0                    368404.00000 6939.52993  98.1%     -    0s
H    0     0                    240668.00000 6939.52993  97.1%     -    0s
H    0     0                    226320.00000 6939.52993  96.9%     -    0s
H    0     0                    69616.000000 6939.52993  90.0%     -    0s
     0     0 6953.29487    0  138 69616.0000 6953.29487  90.0%     -    0s
H    0     0                    69600.000000 6953.29487  90.0%     -    0s
H    0     0                    9192.0000000 6953.94769  24.3%     -    0s
     0     0 6953.94769    0  135 9192.00000 6953.94769  24.3%     -    0s
     0     0 6960.64333    0  163 9192.00000 6960.64333  24.3%     -    0s
H    0     0                    7324.0000000 6960.64333  4.96%     -    0s
     0     0 6960.64333    0  101 7324.00000 6960.64333  4.96%     -    0s
     0     0 6960.64333    0  152 7324.00000 6960.64333  4.96%     -    0s
     0     0 6963.10521    0  159 7324.00000 6963.10521  4.93%     -    0s
     0     0 6963.15684    0  160 7324.00000 6963.15684  4.93%     -    0s
     0     0 6963.16872    0  163 7324.00000 6963.16872  4.93%     -    0s
H    0     0                    7308.0000000 6963.16872  4.72%     -    0s
     0     0 6972.84296    0  173 7308.00000 6972.84296  4.59%     -    0s
     0     0 6973.65540    0  175 7308.00000 6973.65540  4.58%     -    0s
     0     0 6973.65540    0  176 7308.00000 6973.65540  4.58%     -    0s
     0     0 6988.02220    0  172 7308.00000 6988.02220  4.38%     -    0s
H    0     0                    7268.0000000 6988.02220  3.85%     -    0s
     0     0 6991.57063    0  174 7268.00000 6991.57063  3.80%     -    0s
     0     0 6992.73815    0  176 7268.00000 6992.73815  3.79%     -    0s
     0     0 6993.01602    0  189 7268.00000 6993.01602  3.78%     -    0s
     0     0 6993.05668    0  185 7268.00000 6993.05668  3.78%     -    0s
     0     0 6999.13308    0  190 7268.00000 6999.13308  3.70%     -    0s
     0     0 7000.75934    0  192 7268.00000 7000.75934  3.68%     -    0s
     0     0 7001.49770    0  202 7268.00000 7001.49770  3.67%     -    0s
     0     0 7001.69541    0  203 7268.00000 7001.69541  3.66%     -    0s
     0     0 7001.70806    0  203 7268.00000 7001.70806  3.66%     -    0s
     0     0 7002.67676    0  192 7268.00000 7002.67676  3.65%     -    0s
     0     0 7003.06827    0  186 7268.00000 7003.06827  3.65%     -    0s
     0     0 7003.18349    0  196 7268.00000 7003.18349  3.64%     -    0s
     0     0 7003.21054    0  195 7268.00000 7003.21054  3.64%     -    0s
     0     0 7003.76478    0  186 7268.00000 7003.76478  3.64%     -    0s
     0     0 7003.79742    0  191 7268.00000 7003.79742  3.64%     -    0s
     0     0 7003.87075    0  191 7268.00000 7003.87075  3.63%     -    0s
     0     0 7003.87075    0  183 7268.00000 7003.87075  3.63%     -    0s
H    0     0                    7040.0000000 7003.99904  0.51%     -    0s
     0     0 7003.99904    0  109 7040.00000 7003.99904  0.51%     -    0s
     0     0 7003.99904    0  157 7040.00000 7003.99904  0.51%     -    1s
     0     0 7003.99904    0  154 7040.00000 7003.99904  0.51%     -    1s
     0     0 7003.99904    0  154 7040.00000 7003.99904  0.51%     -    1s
     0     0 7003.99904    0  159 7040.00000 7003.99904  0.51%     -    1s
     0     0 7003.99904    0  160 7040.00000 7003.99904  0.51%     -    1s
     0     0 7003.99904    0  159 7040.00000 7003.99904  0.51%     -    1s
     0     0 7003.99904    0  158 7040.00000 7003.99904  0.51%     -    1s
     0     0 7003.99904    0  168 7040.00000 7003.99904  0.51%     -    1s
     0     0 7003.99904    0  169 7040.00000 7003.99904  0.51%     -    1s
     0     0 7003.99904    0  170 7040.00000 7003.99904  0.51%     -    1s
     0     0 7004.81188    0  165 7040.00000 7004.81188  0.50%     -    1s
     0     0 7005.50694    0  173 7040.00000 7005.50694  0.49%     -    1s
     0     0 7006.04571    0  170 7040.00000 7006.04571  0.48%     -    1s
     0     0 7006.04754    0  176 7040.00000 7006.04754  0.48%     -    1s
     0     0 7011.45247    0  183 7040.00000 7011.45247  0.41%     -    1s
     0     0 7012.36497    0  190 7040.00000 7012.36497  0.39%     -    1s
     0     0 7012.88132    0  172 7040.00000 7012.88132  0.39%     -    1s
     0     0 7012.90723    0  173 7040.00000 7012.90723  0.38%     -    1s
     0     0 7013.78788    0  172 7040.00000 7013.78788  0.37%     -    1s
     0     0 7013.92994    0  174 7040.00000 7013.92994  0.37%     -    1s
     0     0 7014.01343    0  172 7040.00000 7014.01343  0.37%     -    1s
     0     0 7014.02180    0  175 7040.00000 7014.02180  0.37%     -    1s
     0     0 7014.44590    0  185 7040.00000 7014.44590  0.36%     -    1s
     0     0 7014.44590    0  181 7040.00000 7014.44590  0.36%     -    1s
     0     2 7014.51120    0  177 7040.00000 7014.51120  0.36%     -    1s
*  438    81              12    7036.0000000 7024.32357  0.17%  92.2    1s

Cutting planes:
  Cover: 4
  Clique: 37
  MIR: 81
  StrongCG: 11
  GUB cover: 70
  Zero half: 15
  RLT: 12

Explored 627 nodes (58824 simplex iterations) in 1.83 seconds (2.80 work units)
Thread count was 8 (of 8 available processors)

Solution count 10: 7036 7040 7100 ... 69600

Optimal solution found (tolerance 1.00e-04)
Best objective 7.036000000000e+03, best bound 7.036000000000e+03, gap 0.0000%

Gurobi 9.5.2 (mac64[arm]) logging started Mon May  1 21:43:32 2023

Set parameter LogFile to value "Java/output/special_iterative/scenario_seed_1_nJob_40_machineCount_2/mip_increment_2/log.txt"
Gurobi Optimizer version 9.5.2 build v9.5.2rc0 (mac64[arm])
Thread count: 8 physical cores, 8 logical processors, using up to 8 threads
Optimize a model with 1066 rows, 3671 columns and 26057 nonzeros
Model fingerprint: 0x94fc35d1
Variable types: 0 continuous, 3671 integer (3671 binary)
Coefficient statistics:
  Matrix range     [1e+00, 2e+02]
  Objective range  [8e+01, 2e+05]
  Bounds range     [1e+00, 1e+00]
  RHS range        [1e+00, 1e+00]
Presolve removed 565 rows and 842 columns
Presolve time: 0.04s
Presolved: 501 rows, 2829 columns, 19229 nonzeros
Variable types: 0 continuous, 2829 integer (2827 binary)

Root relaxation: objective 1.327720e+05, 942 iterations, 0.02 seconds (0.02 work units)

    Nodes    |    Current Node    |     Objective Bounds      |     Work
 Expl Unexpl |  Obj  Depth IntInf | Incumbent    BestBd   Gap | It/Node Time

     0     0 132772.022    0   70          - 132772.022      -     -    0s
H    0     0                    445256.00000 132772.022  70.2%     -    0s
H    0     0                    285079.00000 132772.022  53.4%     -    0s
H    0     0                    259651.00000 132772.022  48.9%     -    0s
H    0     0                    234859.00000 132772.022  43.5%     -    0s
H    0     0                    219019.00000 132772.022  39.4%     -    0s
H    0     0                    215087.00000 135030.239  37.2%     -    0s
     0     0 135030.239    0  135 215087.000 135030.239  37.2%     -    0s
H    0     0                    151418.00000 135030.239  10.8%     -    0s
     0     0 135081.568    0  138 151418.000 135081.568  10.8%     -    0s
     0     0 135081.854    0  137 151418.000 135081.854  10.8%     -    0s
     0     0 136034.509    0  150 151418.000 136034.509  10.2%     -    0s
H    0     0                    145321.00000 136034.509  6.39%     -    0s
     0     0 136068.742    0  148 145321.000 136068.742  6.37%     -    0s
     0     0 136079.807    0  156 145321.000 136079.807  6.36%     -    0s
     0     0 136083.169    0  154 145321.000 136083.169  6.36%     -    0s
     0     0 136083.169    0  154 145321.000 136083.169  6.36%     -    0s
     0     0 137340.645    0  127 145321.000 137340.645  5.49%     -    0s
     0     0 137340.645    0   70 145321.000 137340.645  5.49%     -    0s
     0     0 137340.645    0  146 145321.000 137340.645  5.49%     -    0s
     0     0 137340.645    0  149 145321.000 137340.645  5.49%     -    0s
     0     0 137340.645    0  141 145321.000 137340.645  5.49%     -    0s
     0     0 137340.645    0  144 145321.000 137340.645  5.49%     -    0s
H    0     0                    144852.00000 137340.645  5.19%     -    0s
     0     0 137477.235    0  145 144852.000 137477.235  5.09%     -    0s
H    0     0                    141739.00000 137477.235  3.01%     -    0s
     0     0 137493.389    0  150 141739.000 137493.389  3.00%     -    0s
     0     0 137493.389    0  152 141739.000 137493.389  3.00%     -    0s
     0     0 137706.854    0  162 141739.000 137706.854  2.84%     -    0s
     0     0 137742.188    0  139 141739.000 137742.188  2.82%     -    0s
     0     0 137743.321    0  145 141739.000 137743.321  2.82%     -    0s
     0     0 137795.835    0  153 141739.000 137795.835  2.78%     -    0s
H    0     0                    141048.00000 137795.835  2.31%     -    0s
     0     0 137822.322    0  149 141048.000 137822.322  2.29%     -    0s
     0     0 137880.184    0  150 141048.000 137880.184  2.25%     -    0s
     0     0 137880.924    0  152 141048.000 137880.924  2.25%     -    0s
     0     0 137883.423    0  151 141048.000 137883.423  2.24%     -    0s
     0     0 137883.457    0  160 141048.000 137883.457  2.24%     -    0s
     0     0 137888.910    0  156 141048.000 137888.910  2.24%     -    0s
     0     0 137888.910    0  144 141048.000 137888.910  2.24%     -    0s
     0     0 137990.019    0   77 141048.000 137990.019  2.17%     -    0s
     0     0 137990.019    0  131 141048.000 137990.019  2.17%     -    0s
     0     0 137990.019    0  155 141048.000 137990.019  2.17%     -    0s
     0     0 137990.019    0  149 141048.000 137990.019  2.17%     -    0s
     0     0 137990.564    0  159 141048.000 137990.564  2.17%     -    0s
     0     0 137998.310    0  156 141048.000 137998.310  2.16%     -    0s
     0     0 137999.235    0  146 141048.000 137999.235  2.16%     -    0s
     0     0 138054.540    0  163 141048.000 138054.540  2.12%     -    0s
     0     0 138060.578    0  166 141048.000 138060.578  2.12%     -    0s
     0     0 138076.232    0  166 141048.000 138076.232  2.11%     -    0s
     0     0 138076.232    0  168 141048.000 138076.232  2.11%     -    0s
     0     0 138105.518    0  145 141048.000 138105.518  2.09%     -    0s
     0     0 138105.518    0  148 141048.000 138105.518  2.09%     -    0s
     0     0 138129.942    0  169 141048.000 138129.942  2.07%     -    0s
     0     0 138129.942    0  152 141048.000 138129.942  2.07%     -    0s
     0     2 138171.629    0  152 141048.000 138171.629  2.04%     -    0s
H   34    20                    140550.00000 139476.840  0.76%   139    0s
H   73    24                    140234.00000 139476.840  0.54%  80.8    0s
H   75    24                    140072.00000 139476.840  0.42%  79.5    0s

Cutting planes:
  Gomory: 1
  Cover: 7
  Clique: 22
  MIR: 34
  StrongCG: 7
  GUB cover: 40
  Inf proof: 2
  Zero half: 16
  Mod-K: 2
  RLT: 7

Explored 100 nodes (15822 simplex iterations) in 0.96 seconds (1.25 work units)
Thread count was 8 (of 8 available processors)

Solution count 10: 140072 140234 140550 ... 219019

Optimal solution found (tolerance 1.00e-04)
Best objective 1.400720000000e+05, best bound 1.400720000000e+05, gap 0.0000%

Gurobi 9.5.2 (mac64[arm]) logging started Mon May  1 21:43:33 2023

Set parameter LogFile to value "Java/output/special_iterative/scenario_seed_1_nJob_40_machineCount_2/mip_increment_2/log.txt"
Gurobi Optimizer version 9.5.2 build v9.5.2rc0 (mac64[arm])
Thread count: 8 physical cores, 8 logical processors, using up to 8 threads
Optimize a model with 2196 rows, 40504 columns and 455959 nonzeros
Model fingerprint: 0x88d89a4c
Variable types: 0 continuous, 40504 integer (40504 binary)
Coefficient statistics:
  Matrix range     [1e+00, 2e+02]
  Objective range  [2e+00, 3e+06]
  Bounds range     [1e+00, 1e+00]
  RHS range        [1e+00, 1e+00]

Warning: Completing partial solution with 40382 unfixed non-continuous variables out of 40504
User MIP start produced solution with objective 108038 (0.03s)
Loaded user MIP start with objective 108038

Presolve removed 117 rows and 5206 columns
Presolve time: 0.50s
Presolved: 2079 rows, 35298 columns, 398315 nonzeros
Variable types: 0 continuous, 35298 integer (35294 binary)

Root relaxation: objective 1.190201e+04, 19126 iterations, 3.16 seconds (8.24 work units)

    Nodes    |    Current Node    |     Objective Bounds      |     Work
 Expl Unexpl |  Obj  Depth IntInf | Incumbent    BestBd   Gap | It/Node Time

     0     0 11902.0129    0  558 108038.000 11902.0129  89.0%     -    4s
H    0     0                    99915.000000 11902.0129  88.1%     -    4s
H    0     0                    99813.000000 11951.1959  88.0%     -    7s
     0     0 11951.1959    0  619 99813.0000 11951.1959  88.0%     -    7s
     0     0 11953.9870    0  669 99813.0000 11953.9870  88.0%     -    8s
     0     0 11958.3236    0  654 99813.0000 11958.3236  88.0%     -    9s
     0     0 11958.5083    0  659 99813.0000 11958.5083  88.0%     -    9s
     0     0 11958.6314    0  668 99813.0000 11958.6314  88.0%     -   10s
     0     0 11979.2919    0  764 99813.0000 11979.2919  88.0%     -   13s
H    0     0                    96968.000000 11979.2919  87.6%     -   13s
     0     0 11993.6446    0  817 96968.0000 11993.6446  87.6%     -   15s
     0     0 11996.5136    0  802 96968.0000 11996.5136  87.6%     -   16s
     0     0 11996.5727    0  814 96968.0000 11996.5727  87.6%     -   16s
     0     0 11996.6511    0  812 96968.0000 11996.6511  87.6%     -   16s
     0     0 11996.6602    0  813 96968.0000 11996.6602  87.6%     -   16s
     0     0 12013.0318    0  874 96968.0000 12013.0318  87.6%     -   19s
H    0     0                    93016.000000 12013.0318  87.1%     -   20s
     0     0 12021.7719    0  925 93016.0000 12021.7719  87.1%     -   22s
     0     0 12023.6279    0  913 93016.0000 12023.6279  87.1%     -   23s
     0     0 12024.0766    0  915 93016.0000 12024.0766  87.1%     -   24s
     0     0 12024.1437    0  927 93016.0000 12024.1437  87.1%     -   24s
     0     0 12024.1633    0  937 93016.0000 12024.1633  87.1%     -   24s
     0     0 12038.9317    0  949 93016.0000 12038.9317  87.1%     -   27s
H    0     0                    93008.000000 12038.9317  87.1%     -   27s
     0     0 12043.4985    0  969 93008.0000 12043.4985  87.1%     -   29s
     0     0 12044.0883    0  996 93008.0000 12044.0883  87.1%     -   30s
     0     0 12044.1400    0  993 93008.0000 12044.1400  87.1%     -   30s
     0     0 12051.5434    0  975 93008.0000 12051.5434  87.0%     -   32s
H    0     0                    93001.000000 12051.5434  87.0%     -   36s
     0     0 12061.2547    0 1009 93001.0000 12061.2547  87.0%     -   40s
     0     0 12063.2333    0 1018 93001.0000 12063.2333  87.0%     -   41s
     0     0 12063.5035    0 1035 93001.0000 12063.5035  87.0%     -   41s
     0     0 12063.5858    0 1055 93001.0000 12063.5858  87.0%     -   41s
     0     0 12063.6006    0 1062 93001.0000 12063.6006  87.0%     -   42s
     0     0 12073.4739    0 1041 93001.0000 12073.4739  87.0%     -   44s
     0     0 12075.2199    0 1035 93001.0000 12075.2199  87.0%     -   45s
     0     0 12075.4230    0 1062 93001.0000 12075.4230  87.0%     -   46s
     0     0 12075.7030    0 1079 93001.0000 12075.7030  87.0%     -   46s
     0     0 12075.7306    0 1073 93001.0000 12075.7306  87.0%     -   46s
     0     0 12086.4375    0 1061 93001.0000 12086.4375  87.0%     -   49s
     0     0 12087.8093    0 1083 93001.0000 12087.8093  87.0%     -   50s
     0     0 12088.1138    0 1061 93001.0000 12088.1138  87.0%     -   50s
     0     0 12088.3409    0 1083 93001.0000 12088.3409  87.0%     -   51s
     0     0 12088.4160    0 1084 93001.0000 12088.4160  87.0%     -   51s
     0     0 12100.0423    0 1058 93001.0000 12100.0423  87.0%     -   53s
     0     0 12102.9957    0 1115 93001.0000 12102.9957  87.0%     -   55s
     0     0 12103.5556    0 1129 93001.0000 12103.5556  87.0%     -   56s
     0     0 12104.1939    0 1114 93001.0000 12104.1939  87.0%     -   56s
     0     0 12104.4268    0 1132 93001.0000 12104.4268  87.0%     -   57s
     0     0 12104.8055    0 1130 93001.0000 12104.8055  87.0%     -   57s
     0     0 12104.8484    0 1128 93001.0000 12104.8484  87.0%     -   57s
     0     0 12111.0472    0 1086 93001.0000 12111.0472  87.0%     -   60s
H    0     0                    91664.000000 12111.0472  86.8%     -   63s
     0     0 12112.7846    0 1126 91664.0000 12112.7846  86.8%     -   64s
     0     0 12113.3015    0 1140 91664.0000 12113.3015  86.8%     -   65s
     0     0 12113.4027    0 1140 91664.0000 12113.4027  86.8%     -   66s
     0     0 12117.8733    0 1170 91664.0000 12117.8733  86.8%     -   68s
H    0     0                    91154.000000 12117.8733  86.7%     -   68s
H    0     0                    90582.000000 12117.8733  86.6%     -   68s
     0     0 12119.1338    0 1152 90582.0000 12119.1338  86.6%     -   69s
     0     0 12119.3415    0 1173 90582.0000 12119.3415  86.6%     -   69s
     0     0 12119.3540    0 1173 90582.0000 12119.3540  86.6%     -   70s
     0     0 12124.2004    0 1133 90582.0000 12124.2004  86.6%     -   72s
     0     0 12124.9859    0 1131 90582.0000 12124.9859  86.6%     -   73s
     0     0 12125.0968    0 1138 90582.0000 12125.0968  86.6%     -   73s
     0     0 12128.2299    0 1140 90582.0000 12128.2299  86.6%     -   75s
H    0     0                    89774.000000 12128.2299  86.5%     -   75s
     0     0 12128.8027    0 1163 89774.0000 12128.8027  86.5%     -   76s
     0     0 12129.0196    0 1160 89774.0000 12129.0196  86.5%     -   76s
     0     0 12129.1406    0 1161 89774.0000 12129.1406  86.5%     -   77s
     0     0 12131.3457    0 1176 89774.0000 12131.3457  86.5%     -   78s
H    0     0                    89770.000000 12131.3457  86.5%     -   78s
     0     0 12131.7322    0 1202 89770.0000 12131.7322  86.5%     -   79s
     0     0 12131.8696    0 1208 89770.0000 12131.8696  86.5%     -   80s
     0     0 12135.1864    0 1209 89770.0000 12135.1864  86.5%     -   81s
     0     0 12136.8664    0 1204 89770.0000 12136.8664  86.5%     -   83s
     0     0 12137.4988    0 1242 89770.0000 12137.4988  86.5%     -   84s
     0     0 12137.6473    0 1243 89770.0000 12137.6473  86.5%     -   85s
     0     0 12140.5806    0 1235 89770.0000 12140.5806  86.5%     -   86s
H    0     0                    89762.000000 12140.5806  86.5%     -   89s
     0     0 12142.6007    0 1234 89762.0000 12142.6007  86.5%     -   90s
     0     0 12142.7670    0 1239 89762.0000 12142.7670  86.5%     -   91s
     0     0 12144.4506    0 1221 89762.0000 12144.4506  86.5%     -   92s
     0     0 12145.1453    0 1235 89762.0000 12145.1453  86.5%     -   93s
     0     0 12145.5490    0 1237 89762.0000 12145.5490  86.5%     -   94s
     0     0 12145.6180    0 1246 89762.0000 12145.6180  86.5%     -   94s
     0     0 12146.8846    0 1238 89762.0000 12146.8846  86.5%     -   95s
     0     0 12147.3242    0 1243 89762.0000 12147.3242  86.5%     -   96s
     0     0 12147.4657    0 1268 89762.0000 12147.4657  86.5%     -   97s
     0     0 12148.8842    0 1258 89762.0000 12148.8842  86.5%     -   98s
H    0     0                    89741.000000 12148.8842  86.5%     -   98s
     0     0 12149.1260    0 1264 89741.0000 12149.1260  86.5%     -   98s
     0     0 12149.3571    0 1251 89741.0000 12149.3571  86.5%     -   99s
     0     0 12149.6643    0 1256 89741.0000 12149.6643  86.5%     -   99s
     0     0 12149.8666    0 1253 89741.0000 12149.8666  86.5%     -  100s
     0     0 12149.8945    0 1262 89741.0000 12149.8945  86.5%     -  100s
     0     0 12151.0303    0 1265 89741.0000 12151.0303  86.5%     -  102s
H    0     0                    89739.000000 12151.0303  86.5%     -  109s
     0     0 12151.3068    0 1255 89739.0000 12151.3068  86.5%     -  110s
     0     0 12151.4108    0 1275 89739.0000 12151.4108  86.5%     -  110s
     0     0 12151.8979    0 1254 89739.0000 12151.8979  86.5%     -  111s
     0     0 12151.8979    0 1238 89739.0000 12151.8979  86.5%     -  112s
H    0     0                    88586.000000 12151.8979  86.3%     -  127s
     0     0 12151.8979    0  558 88586.0000 12151.8979  86.3%     -  132s
     0     0 12151.8979    0  685 88586.0000 12151.8979  86.3%     -  135s
     0     0 12151.8979    0  750 88586.0000 12151.8979  86.3%     -  137s
     0     0 12151.8979    0  821 88586.0000 12151.8979  86.3%     -  141s
     0     0 12151.8979    0  919 88586.0000 12151.8979  86.3%     -  143s
     0     0 12151.8979    0  987 88586.0000 12151.8979  86.3%     -  145s
     0     0 12151.8979    0 1047 88586.0000 12151.8979  86.3%     -  148s
     0     0 12151.8979    0 1082 88586.0000 12151.8979  86.3%     -  150s
     0     0 12151.8979    0 1124 88586.0000 12151.8979  86.3%     -  156s
H    0     0                    88562.000000 12151.8979  86.3%     -  157s
     0     0 12151.8979    0 1150 88562.0000 12151.8979  86.3%     -  157s
     0     0 12151.8979    0 1173 88562.0000 12151.8979  86.3%     -  159s
     0     0 12151.8979    0 1194 88562.0000 12151.8979  86.3%     -  160s
     0     0 12151.8979    0 1211 88562.0000 12151.8979  86.3%     -  161s
     0     0 12151.8979    0 1203 88562.0000 12151.8979  86.3%     -  161s
     0     0 12151.8979    0 1206 88562.0000 12151.8979  86.3%     -  161s
     0     0 12153.7989    0 1249 88562.0000 12153.7989  86.3%     -  163s
H    0     0                    86596.000000 12153.7989  86.0%     -  163s
     0     0 12154.2867    0 1249 86596.0000 12154.2867  86.0%     -  164s
     0     0 12154.4951    0 1263 86596.0000 12154.4951  86.0%     -  165s
     0     0 12154.7594    0 1258 86596.0000 12154.7594  86.0%     -  165s
     0     0 12154.8176    0 1259 86596.0000 12154.8176  86.0%     -  166s
     0     0 12158.4717    0 1256 86596.0000 12158.4717  86.0%     -  168s
H    0     0                    86266.000000 12158.4717  85.9%     -  168s
     0     0 12159.3920    0 1244 86266.0000 12159.3920  85.9%     -  177s
     0     0 12159.5370    0 1265 86266.0000 12159.5370  85.9%     -  178s
     0     0 12161.9902    0 1291 86266.0000 12161.9902  85.9%     -  180s
     0     0 12163.3934    0 1276 86266.0000 12163.3934  85.9%     -  182s
     0     0 12163.5274    0 1306 86266.0000 12163.5274  85.9%     -  183s
     0     0 12168.1789    0 1322 86266.0000 12168.1789  85.9%     -  185s
     0     0 12168.8894    0 1329 86266.0000 12168.8894  85.9%     -  186s
     0     0 12169.1305    0 1330 86266.0000 12169.1305  85.9%     -  186s
     0     0 12169.3940    0 1340 86266.0000 12169.3940  85.9%     -  187s
     0     0 12169.4543    0 1357 86266.0000 12169.4543  85.9%     -  187s
     0     0 12171.9174    0 1330 86266.0000 12171.9174  85.9%     -  189s
     0     0 12172.5676    0 1335 86266.0000 12172.5676  85.9%     -  190s
     0     0 12172.7985    0 1347 86266.0000 12172.7985  85.9%     -  190s
H    0     0                    82396.000000 12172.7985  85.2%     -  192s
     0     0 12174.5672    0 1333 82396.0000 12174.5672  85.2%     -  192s
     0     0 12175.3184    0 1338 82396.0000 12175.3184  85.2%     -  193s
     0     0 12175.5033    0 1337 82396.0000 12175.5033  85.2%     -  193s
     0     0 12176.6127    0 1335 82396.0000 12176.6127  85.2%     -  194s
     0     0 12176.6127    0 1325 82396.0000 12176.6127  85.2%     -  195s
H    0     0                    81266.000000 12176.6127  85.0%     -  206s
H    0     2                    78632.000000 12176.6127  84.5%     -  207s
     0     2 12176.6127    0 1320 78632.0000 12176.6127  84.5%     -  207s
     3     8 12202.3806    2 1256 78632.0000 12181.3177  84.5%  5798  214s
     7    16 12232.5612    3 1220 78632.0000 12196.1084  84.5%  6313  221s
    15    24 12251.6525    4 1215 78632.0000 12203.5719  84.5%  7623  232s
    23    32 12242.8335    4 1258 78632.0000 12203.5719  84.5%  9915  247s
H   31    40                    78626.000000 12211.8154  84.5% 11033  304s
H   31    40                    52149.000000 12211.8154  76.6% 11033  304s
    39    48 12259.6840    5 1268 52149.0000 12211.8154  76.6%  9926  310s
    47    59 12252.7742    6 1223 52149.0000 12215.2334  76.6%  8934  317s
    58    70 12254.6882    7 1240 52149.0000 12215.2334  76.6%  8199  325s
H   69    78                    47968.000000 12215.2334  74.5%  7649  332s
H   75    78                    47515.000000 12215.2334  74.3%  7520  332s
H   76    78                    46641.000000 12215.2334  73.8%  7556  332s
    77    86 12305.8267    8 1147 46641.0000 12215.2334  73.8%  7802  351s
    85    95 12258.7312    9 1224 46641.0000 12215.2334  73.8%  7975  367s
    94   103 12304.5442    9 1121 46641.0000 12215.2334  73.8%  8147  389s
H  102   111                    31495.000000 12215.2334  61.2%  8112  404s
H  108   111                    31393.000000 12215.2334  61.1%  8288  404s
   110   126 12261.9686   10 1198 31393.0000 12215.2334  61.1%  8234  417s
   125   136 12297.8983   11 1115 31393.0000 12215.2334  61.1%  8092  430s
H  135   144                    25821.000000 12215.2334  52.7%  8212  447s
H  137   144                    25457.000000 12215.2334  52.0%  8138  447s
H  140   144                    25014.000000 12215.2334  51.2%  8071  447s
H  141   144                    22193.000000 12215.2334  45.0%  8041  447s
   143   154 12282.1000   12 1033 22193.0000 12215.2334  45.0%  8083  458s
   153   167 12286.5639   13 1130 22193.0000 12215.2334  45.0%  8234  475s
   166   183 12274.4495   13 1130 22193.0000 12215.2334  45.0%  8205  520s
H  175   183                    21998.000000 12215.2334  44.5%  8333  520s
   182   198 12275.8730   14 1122 21998.0000 12215.2334  44.5%  8285  536s
   197   218 12277.5397   15 1108 21998.0000 12215.2334  44.5%  8366  551s
   217   241 12280.1830   16 1099 21998.0000 12215.2334  44.5%  8252  565s
   240   262 12281.8944   17 1102 21998.0000 12215.2334  44.5%  8096  579s
   261   282 12296.2483   19 1074 21998.0000 12215.2334  44.5%  8020  594s
   281   283 13610.8094   41  554 21998.0000 12215.2334  44.5%  7893  596s

Cutting planes:
  Cover: 4
  Clique: 221
  MIR: 316
  StrongCG: 151
  GUB cover: 228
  Zero half: 1
  RLT: 6

Explored 282 nodes (2548305 simplex iterations) in 596.02 seconds (1845.44 work units)
Thread count was 8 (of 8 available processors)

Solution count 10: 21998 22193 25014 ... 47968

Time limit reached
Best objective 2.199800000000e+04, best bound 1.221600000000e+04, gap 44.4677%
